(set-logic QF_SLIA)
(declare-fun var0 () String)
(assert (not (str.in_re var0 (re.++ ((_ re.loop 6 106) (re.++ (re.union (str.to_re "}") (re.union (str.to_re "D)c") (re.union (str.to_re "/P1") (str.to_re "E?")))) (re.++ (re.union (str.to_re "+]") (re.union (str.to_re "\\n") (re.union (str.to_re "p\u0022-") (str.to_re "b<;")))) (re.++ (re.union (str.to_re "#*Y") (re.union (str.to_re "3") (re.union (str.to_re "}%") (str.to_re "JMA")))) (re.union (str.to_re "%") (re.union (str.to_re "$") (re.union (str.to_re "0h") (str.to_re "!")))))))) (re.++ ((_ re.loop 9 766) (re.++ (re.union (str.to_re "rZ;") (re.union (str.to_re "p") (re.union (str.to_re "CWX") (str.to_re "eOv")))) (re.++ (re.union (str.to_re "`") (re.union (str.to_re "8") (re.union (str.to_re "D") (str.to_re "^_")))) (re.++ (re.union (str.to_re "o") (re.union (str.to_re "+") (re.union (str.to_re "|:") (str.to_re "{")))) (re.union (str.to_re "7") (re.union (str.to_re "K#j") (re.union (str.to_re "=6") (str.to_re "b\u00224")))))))) (re.++ ((_ re.loop 6 494) (re.++ (re.union (str.to_re "8A") (re.union (str.to_re ":\u0022") (re.union (str.to_re "Q") (str.to_re "9")))) (re.++ (re.union (str.to_re "}`") (re.union (str.to_re "D") (re.union (str.to_re "oIk") (str.to_re "PA")))) (re.++ (re.union (str.to_re "k{f") (re.union (str.to_re "+u") (re.union (str.to_re "~") (str.to_re "N")))) (re.union (str.to_re "rav") (re.union (str.to_re "y") (re.union (str.to_re "\\_") (str.to_re "^7")))))))) ((_ re.loop 18 68) (re.++ (re.union (str.to_re ")") (re.union (str.to_re "o;$") (re.union (str.to_re "(") (str.to_re "jc")))) (re.++ (re.union (str.to_re "rV8") (re.union (str.to_re "4,") (re.union (str.to_re "o") (str.to_re "Gw")))) (re.++ (re.union (str.to_re "N_") (re.union (str.to_re "#") (re.union (str.to_re "J") (str.to_re "l")))) (re.union (str.to_re "KS") (re.union (str.to_re "dl?") (re.union (str.to_re "Ug") (str.to_re "d]"))))))))))))))
(assert (not (str.in_re var0 (re.++ ((_ re.loop 2 934) (re.++ (re.union (str.to_re "Y2") (re.union (str.to_re "55") (re.union (str.to_re "*:}") (str.to_re "da")))) (re.++ (re.union (str.to_re "I8=") (re.union (str.to_re "^") (re.union (str.to_re "H") (str.to_re "{")))) (re.++ (re.union (str.to_re "<t") (re.union (str.to_re "c") (re.union (str.to_re "9)s") (str.to_re ")&3")))) (re.union (str.to_re "y9b") (re.union (str.to_re "v\u0022") (re.union (str.to_re ",%") (str.to_re "4&0")))))))) (re.++ ((_ re.loop 9 305) (re.++ (re.union (str.to_re "Q") (re.union (str.to_re "O") (re.union (str.to_re "AJ") (str.to_re "BG2")))) (re.++ (re.union (str.to_re "y{") (re.union (str.to_re "OqD") (re.union (str.to_re ";") (str.to_re "nu}")))) (re.++ (re.union (str.to_re "E") (re.union (str.to_re "5") (re.union (str.to_re "L") (str.to_re "^Mt")))) (re.union (str.to_re "m(:") (re.union (str.to_re "r") (re.union (str.to_re "4") (str.to_re "|Y")))))))) (re.++ ((_ re.loop 14 351) (re.++ (re.union (str.to_re "y$") (re.union (str.to_re "QUt") (re.union (str.to_re ";") (str.to_re "KQ")))) (re.++ (re.union (str.to_re "b") (re.union (str.to_re "/7") (re.union (str.to_re "!a3") (str.to_re "[V")))) (re.++ (re.union (str.to_re "ghj") (re.union (str.to_re "4{") (re.union (str.to_re "MY[") (str.to_re "VZ")))) (re.union (str.to_re "*") (re.union (str.to_re "jBa") (re.union (str.to_re "S") (str.to_re "[PQ")))))))) ((_ re.loop 8 243) (re.++ (re.union (str.to_re "CP") (re.union (str.to_re "s9@") (re.union (str.to_re "{") (str.to_re "UFN")))) (re.++ (re.union (str.to_re "<") (re.union (str.to_re "k'-") (re.union (str.to_re "H") (str.to_re "U#h")))) (re.++ (re.union (str.to_re "4a") (re.union (str.to_re "_") (re.union (str.to_re "'") (str.to_re "`g")))) (re.union (str.to_re "Bi") (re.union (str.to_re "[6&") (re.union (str.to_re "4") (str.to_re "o^l"))))))))))))))
(assert (not (str.in_re var0 (re.++ (re.* re.allchar) (re.++ (re.union (str.to_re "<") (re.union (str.to_re ">") (re.union (str.to_re "'") (re.union (str.to_re "\u0022") (str.to_re "&"))))) (re.* re.allchar))))))
(assert (<= 50 (str.len var0)))
(check-sat)
(get-model)
